data;

param num_top:=2;

#nodes and edges of the physical network
param n := 7;

set E := (1,2) (1,7) (2,3) (2,6) (2,7) (3,4) (3,6) (4,5) (4,6) (5,6) (6,7) ;

#nodes and edges of the virtual networks
set Nl[1] := 4 5 3 1 ;
set Nl[2] := 5 7 4 2 ;

set El[1] := (4,5) (3,5) (1,3) (1,4) (3,4) (1,5) ;
set El[2] := (5,7) (4,7) (2,4) (2,5) (2,7) (4,5) ;
